Route #1: 2 48 38 34 32 19 15 49 13 46
Route #2: 16 9 26 22 17 50 12 45 4
Route #3: 23 39 14 21 11 28 24 31 3
Route #4: 40 42 20 18 30 1 41
Route #5: 25 36 6 44 47 37
Route #6: 51 27 5 8 29 10
Route #7: 35 33 7 43
Cost 761